\ This file has been generated by DOcplex
\ ENCODING=ISO-8859-1
\Problem name: {self.PROBLEM.name} LEADER SOTA problem

Maximize
 obj: V
Subject To
 c1: V - 7.993598649683 a0_0 - 8.904140790249 a0_1 - 6.334069723510 a0_2 <= 0
 c2: V - 8.752174771212 a0_0 - 9.719702736276 a0_1 - 7.280000000000 a0_2 <= 0
 c3: V - 6.019593395824 a0_0 - 7.280000000000 a0_1 - 10.280000000000 a0_2 <= 0
 c4: a0_0 + a0_1 + a0_2 = 1

Bounds
       a0_0 <= 1
       a0_1 <= 1
       a0_2 <= 1
       V Free
End
